# VASP KPOINTS Template
# Generated by SimFlow

# Automatic mesh
{{ kpoint_type | default("Gamma-centered") }}
 0
Gamma
  {{ kx | default(4) }}  {{ ky | default(4) }}  {{ kz | default(4) }}
  0  0  0
