SimFlow line-mode KPOINTS placeholder
40
Line-mode
reciprocal
0.000 0.000 0.000 ! G
0.500 0.000 0.000 ! X

0.500 0.000 0.000 ! X
0.500 0.500 0.000 ! M
