# Synthetic LAMMPS input for SimFlow dry-run evidence only
units           lj
atom_style      atomic
boundary        p p p

read_data       data.lammps

pair_style      lj/cut 2.5
pair_coeff      1 1 1.0 1.0 2.5

neighbor        0.3 bin
neigh_modify    every 1 delay 0 check yes

thermo_style    custom step temp pe ke etotal press
thermo          10

min_style       cg
minimize        1.0e-6 1.0e-8 100 1000

write_data      final.data
