&GLOBAL
  PROJECT MD_SAMPLE
  RUN_TYPE MD
&END GLOBAL
&MOTION
  &MD
    STEP_START_VAL 25
  &END MD
&END MOTION
&EXT_RESTART
  RESTART_FILE_NAME MD_SAMPLE-1.restart
&END EXT_RESTART
