ALGO = Normal
EDIFF = 1e-06
ENCUT = 520.0
ICHARG = 11
ISMEAR = 0
LCHARG = False
LWAVE = False
PREC = Accurate
SIGMA = 0.05
SYSTEM = Si_bands
