Si FCC bulk
1.0
   5.4310000000   0.0000000000   0.0000000000
   0.0000000000   5.4310000000   0.0000000000
   0.0000000000   0.0000000000   5.4310000000
Si
  2
Direct
   0.000000000   0.000000000   0.000000000
   0.250000000   0.250000000   0.250000000
