ALGO = Normal
EDIFF = 1e-06
ENCUT = 520.0
ICHARG = 2
ISMEAR = 0
LCHARG = True
LREAL = Auto
LWAVE = True
PREC = Accurate
SIGMA = 0.05
SYSTEM = Si_scf
