Si 8-atom cell, 4x4x4 Gamma-centered
0
Gamma
4 4 4
